pure_adt/tip2015_weird_nat_add3_assoc2.smt2
(set-logic HORN)
(declare-datatypes ((Nat_522 0)) (((zero_144 ) (succ_140 (p_389 Nat_522)))))
(declare-fun diseqNat_522 (Nat_522 Nat_522) Bool)
(declare-fun p_390 (Nat_522 Nat_522) Bool)
(declare-fun iszero_140 (Nat_522) Bool)
(declare-fun issucc_140 (Nat_522) Bool)
(assert (forall ((x_53607 Nat_522))
	(p_390 x_53607 (succ_140 x_53607))))
(assert (iszero_140 zero_144))
(assert (forall ((x_53609 Nat_522))
	(issucc_140 (succ_140 x_53609))))
(assert (forall ((x_53610 Nat_522))
	(diseqNat_522 zero_144 (succ_140 x_53610))))
(assert (forall ((x_53611 Nat_522))
	(diseqNat_522 (succ_140 x_53611) zero_144)))
(assert (forall ((x_53612 Nat_522) (x_53613 Nat_522))
	(=> (diseqNat_522 x_53612 x_53613)
	    (diseqNat_522 (succ_140 x_53612) (succ_140 x_53613)))))
(declare-fun plus_135 (Nat_522 Nat_522 Nat_522) Bool)
(assert (forall ((x_53584 Nat_522) (z_1879 Nat_522) (y_2110 Nat_522))
	(=> (plus_135 x_53584 z_1879 y_2110)
	    (plus_135 (succ_140 x_53584) (succ_140 z_1879) y_2110))))
(assert (forall ((x_53585 Nat_522))
	(plus_135 x_53585 zero_144 x_53585)))
(declare-fun add_332 (Nat_522 Nat_522 Nat_522 Nat_522) Bool)
(assert (forall ((x_53586 Nat_522) (x_53587 Nat_522) (x_53572 Nat_522) (y_2111 Nat_522) (z_1880 Nat_522))
	(=>	(and (add_332 x_53587 x_53572 y_2111 z_1880)
			(plus_135 x_53586 (succ_140 zero_144) x_53587))
		(add_332 x_53586 (succ_140 x_53572) y_2111 z_1880))))
(assert (forall ((x_53589 Nat_522) (x_53590 Nat_522) (x_53573 Nat_522) (z_1880 Nat_522))
	(=>	(and (add_332 x_53590 zero_144 x_53573 z_1880)
			(plus_135 x_53589 (succ_140 zero_144) x_53590))
		(add_332 x_53589 zero_144 (succ_140 x_53573) z_1880))))
(assert (forall ((x_53592 Nat_522))
	(add_332 x_53592 zero_144 zero_144 x_53592)))
(assert (forall ((x_53593 Nat_522) (x_53594 Nat_522) (x_53595 Nat_522) (x_53596 Nat_522) (x_53574 Nat_522) (x_53575 Nat_522) (x_53576 Nat_522) (x_53577 Nat_522) (x_53578 Nat_522))
	(=>	(and true
			(diseqNat_522 x_53594 x_53596)
			(add_332 x_53593 x_53574 x_53575 x_53576)
			(add_332 x_53594 x_53593 x_53577 x_53578)
			(add_332 x_53595 x_53575 x_53576 x_53577)
			(add_332 x_53596 x_53574 x_53595 x_53578))
		false)))
(assert (forall ((x_53597 Nat_522) (x_53598 Nat_522) (x_53599 Nat_522) (x_53600 Nat_522) (x_53579 Nat_522) (y_2112 Nat_522) (z_1881 Nat_522))
	(=>	(and true
			(diseqNat_522 x_53598 x_53600)
			(plus_135 x_53597 y_2112 z_1881)
			(plus_135 x_53598 x_53579 x_53597)
			(plus_135 x_53599 x_53579 y_2112)
			(plus_135 x_53600 x_53599 z_1881))
		false)))
(assert (forall ((x_53601 Nat_522) (x_53602 Nat_522) (x_53580 Nat_522) (y_2113 Nat_522))
	(=>	(and true
			(diseqNat_522 x_53601 x_53602)
			(plus_135 x_53601 x_53580 y_2113)
			(plus_135 x_53602 y_2113 x_53580))
		false)))
(assert (forall ((x_53603 Nat_522) (x_53581 Nat_522))
	(=>	(and true
			(diseqNat_522 x_53603 x_53581)
			(plus_135 x_53603 x_53581 zero_144))
		false)))
(assert (forall ((x_53604 Nat_522) (x_53582 Nat_522))
	(=>	(and true
			(diseqNat_522 x_53604 x_53582)
			(plus_135 x_53604 zero_144 x_53582))
		false)))
(check-sat)
